unsat
(:max-memory         18.42
 :memory             18.33
 :nlsat-arith-var    11
 :nlsat-atoms        26
 :nlsat-bool-var     1
 :nlsat-clauses      26
 :nlsat-conflicts    2
 :nlsat-propagations 7
 :nlsat-stages       3
 :num-allocs         50895
 :rlimit-count       1688
 :time               0.00
 :total-time         0.01)
